************************************************************************
file with basedata            : mm12_.bas
initial value random generator: 1471179541
************************************************************************
projects                      :  1
jobs (incl. supersource/sink ):  12
horizon                       :  86
RESOURCES
  - renewable                 :  2   R
  - nonrenewable              :  2   N
  - doubly constrained        :  0   D
************************************************************************
PROJECT INFORMATION:
pronr.  #jobs rel.date duedate tardcost  MPM-Time
    1     10      0       17        0       17
************************************************************************
PRECEDENCE RELATIONS:
jobnr.    #modes  #successors   successors
   1        1          3           2   3   4
   2        3          1          10
   3        3          3           6   7   9
   4        3          3           5   7  11
   5        3          1           9
   6        3          2           8  11
   7        3          1           8
   8        3          1          10
   9        3          1          12
  10        3          1          12
  11        3          1          12
  12        1          0        
************************************************************************
REQUESTS/DURATIONS:
jobnr. mode duration  R 1  R 2  N 1  N 2
------------------------------------------------------------------------
  1      1     0       0    0    0    0
  2      1     6       3    0    7    0
         2     6       0   10    0    3
         3     7       0    3    6    0
  3      1     5       0    4   10    0
         2     7       8    0    0    7
         3     9       0    3    6    0
  4      1     1       0    7    0    6
         2     3       8    0    5    0
         3     9       0    5    2    0
  5      1     3       0    8    0    3
         2     4       0    7    0    2
         3     8       0    3   10    0
  6      1     2       0    8    8    0
         2     3       6    0    6    0
         3     6       0    5    0    6
  7      1     9       3    0    0    9
         2     9       0    9    0    7
         3     9       0    5    7    0
  8      1     2       8    0   10    0
         2     5       3    0    0    8
         3     8       0    8    8    0
  9      1     2       0    6    0    8
         2     6       4    0    0    6
         3    10       0    4    7    0
 10      1     1       0    8    7    0
         2     4       2    0    6    0
         3    10       2    0    3    0
 11      1     6       0    4   10    0
         2     8       7    0    0    1
         3    10       0    3    0    1
 12      1     0       0    0    0    0
************************************************************************
RESOURCEAVAILABILITIES:
  R 1  R 2  N 1  N 2
   10   18   81   51
************************************************************************
MAXIMAL LAGS:
from  to  type  delay
    1   12   ES      0
    1    2   ES      0
    2   12   ES      0
    1    3   ES      0
    3   12   ES      0
    1    4   ES      0
    4   12   ES      0
    1    5   ES      0
    5   12   ES      0
    1    6   ES      0
    6   12   ES      0
    1    7   ES      0
    7   12   ES      0
    1    8   ES      0
    8   12   ES      0
    1    9   ES      0
    9   12   ES      0
    1   10   ES      0
   10   12   ES      0
    1   11   ES      0
   11   12   ES      0
    1   12   ES      0
    2   10   SS      3
    2   10   SE      4
    2   10   ES      8
    2   10   EE      2
    3    6   SS     -4
    3    6   SE     -7
    3    6   ES      6
    3    6   EE      1
    3    7   SS      8
    3    7   SE      3
    3    7   ES    -10
    3    7   EE      3
    3    9   SS     -1
    3    9   SE      1
    3    9   ES     -2
    3    9   EE     -2
    4    5   SS      9
    4    5   SE     -9
    4    5   ES     -7
    4    5   EE     -2
    4    7   SS      1
    4    7   SE     10
    4    7   ES      3
    4    7   EE     -3
    4   11   SS      9
    4   11   SE      0
    4   11   ES     12
    4   11   EE      5
    5    9   SS    -11
    5    9   SE      2
    5    9   ES    -10
    5    9   EE     -2
    6    8   SS     -4
    6    8   SE     -2
    6    8   ES     -9
    6    8   EE     12
    6   11   SS      0
    6   11   SE      4
    6   11   ES    -12
    6   11   EE      9
    7    8   SS      5
    7    8   SE      2
    7    8   ES      1
    7    8   EE    -11
    8   10   SS     -6
    8   10   SE      4
    8   10   ES     -1
    8   10   EE      7
************************************************************************
